21:26:55 | INFO    | Run started | run_id: MR_MV_WT_case2_P10_R3_eps9999 | log file: C:\Users\Asus\Documents\GitHub\logistics-model2\internal-logistics-model2\results\MR_MV_WT\case2\MR_MV_WT_case2_P10_R3_eps9999_2026_05_04_21_26.log
21:26:55 | INFO    | Products loaded | sheet=case2 | rows=10
21:26:55 | INFO    | Data loaded | |N|=26 |Nw|=25 |K|=3 |R|=3 |P|=10 | U=25
21:26:55 | INFO    | Big-M | time=491.0 precedence=480.0 wait=465.0 load_lb=20 load_ub=20
21:26:55 | INFO    | Set parameter Username
21:26:55 | INFO    | Set parameter LicenseID to value 2811848
21:26:55 | INFO    | Academic license - for non-commercial use only - expires 2027-04-22
21:26:55 | INFO    | Objective set | primary: min total_wait | tie-break weight on route_duration: 0.001
21:26:55 | INFO    | Constraint (3) added | route_duration <= 9999
21:26:55 | INFO    | Constraints (4)-(9) added | route structure
21:26:55 | INFO    | Constraints (10)-(12) added | product assignment
21:26:55 | INFO    | Constraints (13)-(15) added | route timing
21:26:56 | INFO    | Constraints (16) added | time consistency
21:26:56 | INFO    | Constraints (17)-(19) added | service times
21:26:56 | INFO    | Constraints (20)-(22) added | precedence, route closure, waiting
21:26:56 | INFO    | Constraints (23)-(27) added | load propagation
21:26:56 | INFO    | Constraints (28)-(32) added | MTZ and route ordering
21:26:56 | INFO    | Set parameter TimeLimit to value 600
21:26:56 | INFO    | Set parameter MIPGap to value 0.01
21:26:56 | INFO    | Set parameter Presolve to value 2
21:26:56 | INFO    | Set parameter LogFile to value "C:\Users\Asus\Documents\GitHub\logistics-model2\internal-logistics-model2\results\MR_MV_WT\case2\result_MR_MV_WT_case2_P10_R3_eps9999_2026_05_04_21_26.log"
21:26:56 | INFO    | Solver configured | TimeLimit=600s | MIPGap=0.01 | gurobi_log=C:\Users\Asus\Documents\GitHub\logistics-model2\internal-logistics-model2\results\MR_MV_WT\case2\result_MR_MV_WT_case2_P10_R3_eps9999_2026_05_04_21_26.log
21:26:56 | INFO    | Optimization starting...
21:26:56 | INFO    | Gurobi Optimizer version 12.0.0 build v12.0.0rc1 (win64 - Windows 10.0 (19045.2))
21:26:56 | INFO    | 
21:26:56 | INFO    | CPU model: 12th Gen Intel(R) Core(TM) i7-12650H, instruction set [SSE2|AVX|AVX2]
21:26:56 | INFO    | Thread count: 10 physical cores, 16 logical processors, using up to 16 threads
21:26:56 | INFO    | 
21:26:56 | INFO    | Non-default parameters:
21:26:56 | INFO    | TimeLimit  600
21:26:56 | INFO    | MIPGap  0.01
21:26:56 | INFO    | Presolve  2
21:26:56 | INFO    | 
21:26:56 | INFO    | Optimize a model with 24692 rows, 7327 columns and 125772 nonzeros
21:26:56 | INFO    | Model fingerprint: 0x411bffe6
21:26:56 | INFO    | Variable types: 1162 continuous, 6165 integer (5940 binary)
21:26:56 | INFO    | Coefficient statistics:
21:26:56 | INFO    |   Matrix range     [1e+00, 5e+02]
21:26:56 | INFO    |   Objective range  [1e-03, 1e+00]
21:26:56 | INFO    |   Bounds range     [1e+00, 3e+01]
21:26:56 | INFO    |   RHS range        [1e+00, 1e+04]
21:26:56 | INFO    | Presolve removed 18198 rows and 5304 columns
21:26:56 | INFO    | Presolve time: 0.22s
21:26:56 | INFO    | Presolved: 6494 rows, 2023 columns, 43809 nonzeros
21:26:56 | INFO    | Variable types: 475 continuous, 1548 integer (1440 binary)
21:26:56 | INFO    | Root relaxation presolve removed 33 rows and 0 columns
21:26:56 | INFO    | Root relaxation presolved: 6461 rows, 2047 columns, 43545 nonzeros
21:26:56 | INFO    | 
21:26:56 | INFO    | 
21:26:56 | INFO    | Root relaxation: objective 0.000000e+00, 708 iterations, 0.06 seconds (0.11 work units)
21:26:57 | INFO    | 
21:26:57 | INFO    |     Nodes    |    Current Node    |     Objective Bounds      |     Work
21:26:57 | INFO    |  Expl Unexpl |  Obj  Depth IntInf | Incumbent    BestBd   Gap | It/Node Time
21:26:57 | INFO    | 
21:26:57 | INFO    |      0     0    0.00000    0   97          -    0.00000      -     -    0s
21:26:57 | INFO    |      0     0    0.00000    0  132          -    0.00000      -     -    0s
21:26:57 | INFO    |      0     0    0.00000    0  133          -    0.00000      -     -    0s
21:26:57 | INFO    |      0     0    0.00000    0   84          -    0.00000      -     -    1s
21:26:57 | INFO    |      0     0    0.00000    0   87          -    0.00000      -     -    1s
21:26:57 | INFO    |      0     0    3.02725    0   97          -    3.02725      -     -    1s
21:26:57 | INFO    |      0     0    9.00898    0   97          -    9.00898      -     -    1s
21:26:57 | INFO    |      0     0   12.00000    0  132          -   12.00000      -     -    1s
21:26:57 | INFO    |      0     0   12.00000    0  124          -   12.00000      -     -    1s
21:26:58 | INFO    |      0     0   19.50905    0  149          -   19.50905      -     -    1s
21:26:58 | INFO    |      0     0   19.51711    0  151          -   19.51711      -     -    1s
21:26:58 | INFO    |      0     0   19.51711    0  144          -   19.51711      -     -    1s
21:26:58 | INFO    |      0     0   30.00000    0  244          -   30.00000      -     -    1s
21:26:58 | INFO    |      0     0   30.00000    0  115          -   30.00000      -     -    1s
21:26:58 | INFO    | H    0     0                     387.2650000   30.00000  92.3%     -    1s
21:26:58 | INFO    | H    0     0                     380.2620000   30.00000  92.1%     -    1s
21:26:58 | INFO    | H    0     0                     347.2560000   30.00000  91.4%     -    1s
21:26:58 | INFO    |      0     0   30.00000    0  198  347.25600   30.00000  91.4%     -    1s
21:26:58 | INFO    |      0     0   30.00000    0  124  347.25600   30.00000  91.4%     -    2s
21:26:58 | INFO    | H    0     0                     340.2560000   30.00000  91.2%     -    2s
21:26:58 | INFO    | H    0     0                     336.2560000   30.00000  91.1%     -    2s
21:26:58 | INFO    | H    0     0                     327.2530000   30.00000  90.8%     -    2s
21:26:58 | INFO    | H    0     0                     307.2530000   30.00000  90.2%     -    2s
21:26:58 | INFO    | H    0     0                     307.2520000   30.00000  90.2%     -    2s
21:26:58 | INFO    | H    0     0                     277.2550000   30.00000  89.2%     -    2s
21:26:58 | INFO    | H    0     0                     199.2280000   30.00000  84.9%     -    2s
21:26:58 | INFO    | H    0     0                     197.2330000   30.00000  84.8%     -    2s
21:26:58 | INFO    | H    0     0                     159.2160000   30.00000  81.2%     -    2s
21:26:59 | INFO    |      0     0   30.00000    0  114  159.21600   30.00000  81.2%     -    2s
21:26:59 | INFO    | H    0     0                     133.2160000   30.00000  77.5%     -    2s
21:26:59 | INFO    | H    0     0                     126.2090000   30.00000  76.2%     -    2s
21:26:59 | INFO    |      0     0   30.00000    0  133  126.20900   30.00000  76.2%     -    2s
21:26:59 | INFO    | H    0     0                     122.2100000   30.00000  75.5%     -    2s
21:26:59 | INFO    |      0     0   30.00000    0  104  122.21000   30.00000  75.5%     -    3s
21:26:59 | INFO    |      0     0   30.00000    0   76  122.21000   30.00000  75.5%     -    3s
21:27:00 | INFO    |      0     0   30.00000    0   77  122.21000   30.00000  75.5%     -    3s
21:27:00 | INFO    |      0     0   30.00000    0   96  122.21000   30.00000  75.5%     -    3s
21:27:00 | INFO    |      0     0   30.00000    0   88  122.21000   30.00000  75.5%     -    4s
21:27:00 | INFO    |      0     0   30.00000    0   88  122.21000   30.00000  75.5%     -    4s
21:27:01 | INFO    |      0     2   30.00000    0   88  122.21000   30.00000  75.5%     -    4s
21:27:01 | INFO    |     57   179   30.00000    9   87  122.21000   30.00000  75.5%   254    5s
21:27:02 | INFO    | H  541   572                     114.2020000   30.00000  73.7%   102    5s
21:27:03 | INFO    | H 1769  1237                     109.1960000   30.00000  72.5%  52.7    7s
21:27:07 | INFO    |   2307  1500   38.04000   29   75  109.19600   30.00000  72.5%  49.2   10s
21:27:08 | INFO    | H 2310  1426                     102.1890000   30.00000  70.6%  49.1   12s
21:27:11 | INFO    |   2321  1433   52.00022   30  110  102.18900   30.00000  70.6%  48.9   15s
21:27:16 | INFO    |   2427  1520   30.03900   19   64  102.18900   30.00000  70.6%  87.9   20s
21:27:22 | INFO    |   2691  1828   30.03900   31   98  102.18900   30.00000  70.6%  96.4   25s
21:27:27 | INFO    |   4738  2562   40.05582   85   75  102.18900   30.00000  70.6%   111   30s
21:27:31 | INFO    |   6934  3001   82.02859   50   86  102.18900   30.00000  70.6%   106   35s
21:27:37 | INFO    |   9632  4641   61.00011   33   52  102.18900   30.00000  70.6%   105   40s
21:27:42 | INFO    |  10852  5183   86.11820   32   69  102.18900   30.00000  70.6%   109   45s
21:27:46 | INFO    |  14569  7030   30.00418   35   80  102.18900   30.00000  70.6%   108   50s
21:27:51 | INFO    |  16461  8025   54.06483   32   88  102.18900   30.00000  70.6%   110   55s
21:27:57 | INFO    |  20819 10249   69.45779   31   59  102.18900   30.00000  70.6%   109   60s
21:28:01 | INFO    |  21644 10740 infeasible   60       102.18900   30.00000  70.6%   110   65s
21:28:07 | INFO    |  25639 12575   51.06733   35   92  102.18900   30.00000  70.6%   109   70s
21:28:11 | INFO    |  28687 13876   35.00023   35   94  102.18900   30.00000  70.6%   109   75s
21:28:16 | INFO    |  32187 15612   57.00316   32   57  102.18900   30.00000  70.6%   109   80s
21:28:30 | INFO    |  32930 16943   60.00063   44  101  102.18900   30.00000  70.6%   109   94s
21:28:31 | INFO    |  35569 17179   82.00434   34   64  102.18900   30.00000  70.6%   107   95s
21:28:36 | INFO    |  36574 17506   30.00019   46   76  102.18900   30.00000  70.6%   108  100s
21:28:42 | INFO    |  38672 18705   74.73160   47   57  102.18900   30.00000  70.6%   108  105s
21:28:46 | INFO    |  41091 20570 infeasible   44       102.18900   30.00000  70.6%   108  110s
21:28:52 | INFO    |  44964 21494   55.00011   32   77  102.18900   30.00000  70.6%   107  115s
21:28:56 | INFO    | H45032 21618                     100.1890000   30.00000  70.1%   107  119s
21:28:57 | INFO    |  45373 22078   58.26946   34   85  100.18900   30.00000  70.1%   107  121s
21:29:02 | INFO    |  48091 23327     cutoff   56       100.18900   30.00000  70.1%   108  125s
21:29:08 | INFO    |  49533 24044   55.00150   49   61  100.18900   30.00000  70.1%   108  131s
21:29:11 | INFO    |  51415 24882   66.01774   39   76  100.18900   30.00000  70.1%   109  135s
21:29:18 | INFO    |  54804 27290   58.05500   71   24  100.18900   30.00000  70.1%   110  142s
21:29:21 | INFO    |  58592 28166   54.58057   42   91  100.18900   30.00000  70.1%   109  145s
21:29:28 | INFO    |  60370 28920 infeasible   33       100.18900   30.00000  70.1%   109  151s
21:29:31 | INFO    |  62229 30540   84.07804   60   63  100.18900   30.00000  70.1%   109  155s
21:29:37 | INFO    |  65884 32523   68.39900   29   57  100.18900   30.00000  70.1%   109  161s
21:29:42 | INFO    |  70107 33552   88.11931   36   62  100.18900   30.00000  70.1%   108  165s
21:29:47 | INFO    |  73754 35609 infeasible   64       100.18900   30.00000  70.1%   108  171s
21:29:51 | INFO    |  74814 35864   83.65500   37   68  100.18900   30.00000  70.1%   108  175s
21:29:53 | INFO    | H75260 35790                      95.1890000   30.00000  68.5%   108  176s
21:29:57 | INFO    |  77523 36780   92.07691   25   83   95.18900   30.00000  68.5%   109  181s
21:30:02 | INFO    |  80859 38477   71.06900   37   58   95.18900   30.00000  68.5%   109  186s
21:30:07 | INFO    |  83324 39847 infeasible   56        95.18900   30.00000  68.5%   108  190s
21:30:11 | INFO    |  85208 41323   32.81419   54   70   95.18900   30.00000  68.5%   109  195s
21:30:17 | INFO    |  88969 43030   79.23495   63   47   95.18900   30.00000  68.5%   109  201s
21:30:22 | INFO    |  90949 43161     cutoff   35        95.18900   30.00000  68.5%   109  205s
21:30:27 | INFO    |  92592 44154   41.05500   54   62   95.18900   30.00000  68.5%   110  210s
21:30:32 | INFO    |  94829 45070 infeasible   62        95.18900   30.00000  68.5%   111  215s
21:30:37 | INFO    |  96187 45343   58.82083   43   80   95.18900   30.00000  68.5%   112  221s
21:30:43 | INFO    |  96808 46034   63.36533   46   70   95.18900   30.00000  68.5%   112  227s
21:30:48 | INFO    |  97931 46654 infeasible   54        95.18900   30.00000  68.5%   113  231s
21:30:53 | INFO    |  100145 47408     cutoff   56        95.18900   30.00000  68.5%   113  236s
21:30:57 | INFO    |  101115 47679   66.19917   60   98   95.18900   30.00000  68.5%   114  241s
21:31:03 | INFO    |  103153 48796   30.00265   49   78   95.18900   30.00000  68.5%   114  247s
21:31:08 | INFO    |  105504 49651   35.17237   56   78   95.18900   30.00000  68.5%   115  252s
21:31:13 | INFO    |  107474 50641     cutoff   43        95.18900   30.00000  68.5%   115  257s
21:31:18 | INFO    |  109632 52028   60.90620   60   89   95.18900   30.00000  68.5%   116  262s
21:31:23 | INFO    |  112227 52877   52.10748   61   94   95.18900   30.00000  68.5%   117  267s
21:31:28 | INFO    |  113304 53341   80.09398   61   65   95.18900   30.00000  68.5%   117  271s
21:31:33 | INFO    |  115075 54401   30.00000   47   85   95.18900   30.00000  68.5%   118  277s
21:31:36 | INFO    |  116266 55710   39.22863   65   70   95.18900   30.00000  68.5%   118  280s
21:31:42 | INFO    |  119733 56604   38.01189   69  100   95.18900   30.00000  68.5%   118  285s
21:31:47 | INFO    |  123449 58185   40.31579   56   69   95.18900   30.00000  68.5%   118  291s
21:31:51 | INFO    |  124824 58578   30.66720   53  100   95.18900   30.00000  68.5%   118  295s
21:31:57 | INFO    |  126644 59620   48.00000   54   72   95.18900   30.00000  68.5%   119  301s
21:32:02 | INFO    |  128404 60394   69.68948   75   76   95.18900   30.00000  68.5%   119  305s
21:32:07 | INFO    |  131231 61364   60.00007   60  121   95.18900   30.00000  68.5%   119  310s
21:32:11 | INFO    |  131659 61719   60.00044   62  102   95.18900   30.00000  68.5%   120  315s
21:32:18 | INFO    |  134020 62842   31.00281   43   86   95.18900   30.00000  68.5%   120  321s
21:32:23 | INFO    |  136090 63370   49.93313   47   78   95.18900   30.00000  68.5%   121  326s
21:32:56 | INFO    |  136104 67585   53.27084   47   54   95.18900   30.00000  68.5%   121  359s
21:32:56 | INFO    |  142104 67585   48.17865   84   87   95.18900   30.00000  68.5%   122  360s
21:33:01 | INFO    |  147388 68344   30.00050   84  101   95.18900   30.00000  68.5%   122  365s
21:33:08 | INFO    |  148217 68911   61.05500   87   74   95.18900   30.00000  68.5%   122  372s
21:33:12 | INFO    |  149283 69513   38.01456   79   97   95.18900   30.00000  68.5%   122  376s
21:33:19 | INFO    |  150957 69734   57.25716   74   77   95.18900   30.00000  68.5%   123  383s
21:33:23 | INFO    |  151110 70196   57.25716   75   78   95.18900   30.00000  68.5%   123  386s
21:33:26 | INFO    |  152452 70607   82.00415   73   79   95.18900   30.00000  68.5%   123  390s
21:33:32 | INFO    |  154522 71610   30.00014   74  103   95.18900   30.00000  68.5%   123  396s
21:33:38 | INFO    |  156754 72150   30.47302   99   89   95.18900   30.00000  68.5%   123  401s
21:33:44 | INFO    |  157528 72807   86.23755   75   72   95.18900   30.00000  68.5%   123  407s
21:33:47 | INFO    |  158520 73259   30.00000   38   74   95.18900   30.00000  68.5%   124  410s
21:33:53 | INFO    |  160613 74364   30.00000   82   71   95.18900   30.00000  68.5%   124  416s
21:33:59 | INFO    |  162890 75313 infeasible  106        95.18900   30.00000  68.5%   124  423s
21:34:02 | INFO    |  164237 75835   39.67531   93   59   95.18900   30.00000  68.5%   124  426s
21:34:09 | INFO    |  166203 76696   30.00000   78   91   95.18900   30.00000  68.5%   125  432s
21:34:12 | INFO    |  167079 77214 infeasible   86        95.18900   30.00000  68.5%   125  435s
21:34:19 | INFO    |  169748 78520   30.95252   68  107   95.18900   30.00000  68.5%   125  442s
21:34:21 | INFO    |  171093 78786 infeasible   67        95.18900   30.00000  68.5%   125  445s
21:34:27 | INFO    |  173054 79712   30.00000   56   79   95.18900   30.00000  68.5%   124  450s
21:34:32 | INFO    |  175090 80939   30.45633   84   96   95.18900   30.00000  68.5%   124  455s
21:34:38 | INFO    |  176918 81383   51.00000   50   83   95.18900   30.00000  68.5%   124  461s
21:34:43 | INFO    |  177998 82086   56.00075   52   76   95.18900   30.00000  68.5%   124  467s
21:34:49 | INFO    |  179848 83037   30.64116   72  131   95.18900   30.00000  68.5%   125  472s
21:34:51 | INFO    |  180790 83440 infeasible   56        95.18900   30.00000  68.5%   125  475s
21:34:57 | INFO    |  182650 84312     cutoff   91        95.18900   30.00000  68.5%   125  480s
21:35:02 | INFO    |  185732 85842 infeasible   66        95.18900   30.00000  68.5%   125  486s
21:35:09 | INFO    |  187587 87533   65.00119   63   81   95.18900   30.00000  68.5%   125  492s
21:35:13 | INFO    |  190472 87930   44.00011   60  122   95.18900   30.00000  68.5%   125  496s
21:35:16 | INFO    |  190664 87969 infeasible   69        95.18900   30.00000  68.5%   125  500s
21:35:22 | INFO    |  190834 88088   45.00038   67   81   95.18900   30.00000  68.5%   125  506s
21:35:27 | INFO    |  191041 88271   45.00038   69   80   95.18900   30.00000  68.5%   125  510s
21:35:32 | INFO    |  192044 89152   67.00595   71   64   95.18900   30.00000  68.5%   125  516s
21:35:38 | INFO    |  193642 90026   49.01388   83  120   95.18900   30.00000  68.5%   126  522s
21:35:41 | INFO    |  194698 90279   50.05700   76   31   95.18900   30.00000  68.5%   126  525s
21:35:48 | INFO    |  196071 91149   30.00501   63   70   95.18900   30.00000  68.5%   126  531s
21:35:51 | INFO    |  197268 91620 infeasible   60        95.18900   30.00000  68.5%   126  535s
21:35:58 | INFO    |  199405 92629   41.05873   58   93   95.18900   30.00000  68.5%   127  541s
21:36:01 | INFO    |  200558 92995   38.06461   73   91   95.18900   30.00000  68.5%   127  545s
21:36:08 | INFO    |  202359 93883   30.00000   61   96   95.18900   30.00000  68.5%   127  551s
21:36:15 | INFO    |  203711 94852   52.20862   61   63   95.18900   30.00000  68.5%   127  558s
21:36:18 | INFO    |  205146 95372   53.06879   61  101   95.18900   30.00000  68.5%   127  562s
21:36:21 | INFO    |  206287 95872   46.08474   77   71   95.18900   30.00000  68.5%   127  565s
21:36:28 | INFO    |  208135 96757   30.01374   75   79   95.18900   30.00000  68.5%   128  572s
21:36:31 | INFO    |  209228 96785   51.05094   61   85   95.18900   30.00000  68.5%   128  575s
21:36:38 | INFO    |  209751 97497   51.05094   63   90   95.18900   30.00000  68.5%   128  581s
21:36:42 | INFO    |  210836 98048   57.00000   70   64   95.18900   30.00000  68.5%   128  585s
21:36:48 | INFO    |  213244 99125 infeasible   56        95.18900   30.00000  68.5%   128  592s
21:36:52 | INFO    |  214245 99621   34.28968   70  104   95.18900   30.00000  68.5%   128  595s
21:36:56 | INFO    |  217075 100701   30.00000   75   99   95.18900   30.00000  68.5%   128  600s
21:36:56 | INFO    | 
21:36:56 | INFO    | Cutting planes:
21:36:56 | INFO    |   Learned: 144
21:36:56 | INFO    |   Gomory: 15
21:36:56 | INFO    |   Cover: 287
21:36:56 | INFO    |   Implied bound: 564
21:36:56 | INFO    |   Projected implied bound: 25
21:36:56 | INFO    |   Clique: 25
21:36:56 | INFO    |   MIR: 466
21:36:56 | INFO    |   Mixing: 12
21:36:56 | INFO    |   StrongCG: 21
21:36:56 | INFO    |   Flow cover: 2480
21:36:56 | INFO    |   Inf proof: 75
21:36:56 | INFO    |   Zero half: 17
21:36:56 | INFO    |   RLT: 223
21:36:56 | INFO    |   Relax-and-lift: 169
21:36:56 | INFO    |   BQP: 5
21:36:56 | INFO    |   PSD: 2
21:36:56 | INFO    | 
21:36:56 | INFO    | Explored 217234 nodes (27965149 simplex iterations) in 600.09 seconds (701.63 work units)
21:36:56 | INFO    | Thread count was 16 (of 16 available processors)
21:36:56 | INFO    | 
21:36:56 | INFO    | Solution count 10: 95.189 100.189 102.189 ... 197.233
21:36:56 | INFO    | 
21:36:56 | INFO    | Time limit reached
21:36:56 | INFO    | Best objective 9.518900000000e+01, best bound 3.000000002742e+01, gap 68.4838%
21:36:56 | INFO    | Solution found | total_wait=95.00 | route_duration=189.00
21:36:56 | INFO    | Objective=95.19 | runtime=600.09s | MIP Gap=68.48%
21:36:56 | INFO    | Generating Excel output | C:\Users\Asus\Documents\GitHub\logistics-model2\internal-logistics-model2\results\MR_MV_WT\case2\result_MR_MV_WT_case2_P10_R3_eps9999_2026_05_04_21_26.xlsx
21:36:56 | INFO    | Excel output written | 12 sheets | C:\Users\Asus\Documents\GitHub\logistics-model2\internal-logistics-model2\results\MR_MV_WT\case2\result_MR_MV_WT_case2_P10_R3_eps9999_2026_05_04_21_26.xlsx
21:36:56 | INFO    | Master Pareto updated | 23 total rows | C:\Users\Asus\Documents\GitHub\logistics-model2\internal-logistics-model2\results\master_pareto.xlsx
21:36:56 | INFO    | Run complete | run_id=MR_MV_WT_case2_P10_R3_eps9999
